55
2 0 9
2 1 10
3 1 2
3 2 5
4 0 9
4 2 9
5 1 1
5 2 9
5 3 4
6 1 4
6 4 9
7 2 8
7 3 1
7 4 5
7 5 9
8 6 7
8 7 8
9 0 3
9 3 10
9 4 9
9 6 2
9 7 9
10 1 2
10 3 3
10 4 1
10 6 7
10 9 3
11 0 2
11 1 4
11 4 7
11 5 4
11 6 7
11 7 6
11 8 7
11 9 9
11 10 2
12 0 2
12 1 5
12 4 3
12 5 1
12 9 3
13 0 10
13 1 9
13 3 5
13 4 10
13 5 7
13 7 10
13 8 6
13 11 1
13 12 6
14 0 6
14 2 8
14 4 8
14 6 6
14 7 5
14 10 6
15 0 6
15 7 3
15 9 6
15 12 4
15 13 7
15 14 2
16 3 5
16 4 10
16 8 5
16 9 10
16 10 6
16 12 7
16 14 7
17 2 5
17 7 5
17 9 7
17 10 4
17 12 8
17 14 8
17 15 6
18 2 9
18 3 7
18 4 6
18 12 10
18 13 7
18 14 10
18 15 2
18 16 8
18 17 3
19 3 9
19 4 1
19 6 4
19 7 4
19 9 6
19 11 9
19 13 8
19 14 7
19 18 1
20 0 3
20 4 3
20 5 9
20 7 4
20 8 8
20 13 7
20 18 1
20 19 1
21 0 6
21 1 5
21 2 10
21 3 8
21 5 10
21 6 5
21 9 4
21 10 10
21 11 1
21 12 7
21 17 8
21 20 6
22 1 4
22 2 8
22 5 1
22 6 3
22 8 9
22 11 8
22 13 7
22 14 4
22 15 4
22 16 1
22 17 3
22 18 9
22 19 8
23 2 4
23 3 8
23 5 3
23 6 3
23 7 2
23 8 9
23 9 5
23 13 7
23 15 6
23 16 2
23 17 3
24 0 1
24 2 4
24 3 10
24 9 4
24 10 7
24 11 6
24 12 1
24 13 10
24 19 6
24 20 5
24 21 1
24 22 9
25 0 5
25 1 3
25 2 6
25 6 10
25 7 2
25 8 7
25 10 1
25 11 6
25 12 1
25 13 5
25 15 8
25 16 3
25 17 4
25 18 3
25 20 4
25 21 2
25 22 6
25 23 2
25 24 10
26 3 10
26 4 4
26 6 5
26 9 2
26 11 1
26 13 2
26 15 7
26 16 10
26 19 4
26 20 4
26 22 1
26 24 5
26 25 3
27 0 8
27 2 2
27 4 10
27 5 4
27 6 4
27 8 2
27 10 4
27 13 4
27 14 10
27 18 1
27 19 8
27 20 2
27 21 4
27 22 8
27 23 2
27 25 2
28 1 2
28 2 7
28 4 2
28 5 9
28 6 3
28 7 4
28 13 9
28 16 8
28 17 5
28 20 10
28 21 6
28 25 5
28 27 1
29 6 7
29 9 1
29 12 2
29 14 7
29 15 10
29 18 3
29 20 10
29 22 10
29 24 10
29 26 9
29 27 4
29 28 10
30 1 10
30 2 3
30 8 7
30 9 2
30 10 10
30 12 9
30 13 10
30 16 9
30 25 1
30 26 5
31 2 9
31 3 10
31 4 10
31 6 5
31 7 4
31 10 8
31 17 8
31 18 1
31 19 4
31 21 9
31 22 4
31 26 3
31 27 9
31 28 4
32 1 1
32 5 6
32 6 4
32 9 4
32 11 2
32 16 6
32 19 8
32 21 10
32 24 6
32 25 9
32 27 4
32 28 2
32 29 3
32 31 4
33 1 6
33 2 8
33 5 2
33 6 4
33 7 5
33 8 9
33 9 10
33 10 6
33 11 5
33 12 9
33 13 10
33 15 3
33 16 8
33 19 2
33 20 10
33 22 8
33 24 9
33 26 8
33 30 7
33 32 1
34 1 9
34 2 2
34 3 8
34 4 9
34 6 8
34 7 7
34 9 6
34 11 6
34 15 7
34 18 9
34 20 1
34 21 4
34 22 4
34 24 2
34 25 1
34 26 6
34 27 9
34 28 3
34 29 1
34 31 5
35 5 3
35 7 10
35 12 8
35 13 10
35 15 9
35 16 6
35 21 7
35 23 9
35 24 8
35 27 5
35 28 3
35 30 7
35 33 8
36 0 3
36 1 9
36 2 9
36 5 7
36 6 8
36 7 7
36 8 3
36 9 7
36 11 7
36 12 8
36 14 8
36 15 10
36 17 4
36 19 4
36 21 4
36 22 8
36 23 5
36 25 4
36 27 1
36 28 4
36 29 8
36 30 1
36 31 7
36 35 3
37 2 1
37 6 6
37 10 10
37 11 5
37 12 9
37 13 10
37 17 10
37 18 10
37 19 1
37 21 4
37 24 6
37 28 7
37 29 2
37 31 6
37 32 9
37 33 4
37 35 9
37 36 10
38 0 9
38 2 10
38 7 4
38 8 3
38 10 1
38 13 9
38 14 9
38 20 5
38 22 10
38 23 6
38 25 6
38 27 1
38 29 9
38 30 2
38 31 6
38 32 5
38 34 1
38 35 2
39 1 4
39 4 8
39 7 4
39 10 4
39 11 8
39 12 7
39 13 3
39 17 6
39 18 2
39 19 8
39 21 4
39 22 1
39 23 6
39 24 1
39 26 3
39 27 6
39 29 1
39 33 9
39 34 10
39 35 5
39 36 8
40 2 6
40 4 2
40 5 6
40 8 3
40 11 6
40 14 8
40 15 2
40 20 5
40 21 9
40 22 2
40 27 4
40 28 2
40 29 6
40 37 8
40 39 1
41 0 4
41 1 2
41 4 4
41 5 7
41 8 1
41 10 6
41 11 3
41 14 6
41 15 10
41 19 2
41 21 10
41 22 3
41 23 3
41 24 3
41 25 1
41 27 6
41 30 10
41 35 8
41 38 9
41 39 2
42 0 9
42 1 7
42 3 7
42 4 7
42 7 2
42 8 7
42 9 7
42 10 5
42 12 7
42 13 8
42 18 5
42 19 8
42 20 4
42 21 3
42 22 6
42 23 2
42 24 9
42 27 7
42 30 9
42 32 5
42 34 4
42 35 5
42 36 6
42 37 8
42 41 5
43 1 8
43 3 3
43 9 6
43 10 3
43 15 5
43 16 8
43 17 4
43 18 7
43 21 1
43 22 9
43 23 2
43 28 6
43 30 6
43 31 1
43 32 6
43 33 9
43 37 10
43 39 1
43 40 8
43 41 5
44 3 6
44 5 1
44 6 10
44 7 8
44 10 10
44 12 1
44 15 4
44 16 1
44 17 7
44 19 10
44 21 8
44 22 9
44 23 2
44 26 9
44 27 2
44 29 4
44 31 10
44 32 2
44 33 7
44 34 7
44 35 6
44 37 7
44 38 9
44 39 10
44 43 1
45 0 8
45 1 9
45 4 4
45 5 1
45 6 4
45 12 6
45 14 1
45 15 1
45 16 3
45 18 4
45 21 3
45 23 5
45 25 6
45 27 6
45 28 6
45 29 6
45 31 7
45 33 5
45 36 3
45 39 4
45 41 4
45 42 4
46 3 6
46 4 8
46 5 2
46 6 9
46 7 1
46 9 10
46 12 2
46 14 9
46 18 1
46 19 7
46 20 9
46 22 8
46 23 2
46 24 4
46 25 8
46 28 5
46 29 8
46 32 10
46 33 5
46 36 9
46 37 6
46 39 10
46 42 9
46 43 9
47 1 2
47 3 4
47 4 3
47 9 9
47 10 1
47 12 7
47 14 5
47 15 4
47 16 6
47 17 7
47 18 5
47 19 4
47 20 9
47 22 4
47 24 9
47 26 1
47 29 3
47 31 8
47 32 4
47 35 2
47 41 8
47 46 2
48 0 10
48 1 3
48 5 2
48 6 9
48 7 7
48 16 2
48 18 1
48 19 8
48 20 7
48 22 4
48 23 3
48 25 8
48 26 6
48 28 9
48 36 10
48 37 6
48 41 7
48 43 2
48 46 5
49 0 6
49 1 6
49 2 2
49 7 1
49 11 10
49 12 9
49 14 3
49 17 9
49 18 2
49 19 10
49 21 1
49 23 3
49 24 6
49 28 4
49 30 9
49 33 6
49 35 5
49 37 10
49 39 10
49 42 3
49 43 2
49 44 7
49 45 10
49 46 5
50 0 4
50 1 3
50 3 5
50 4 3
50 10 6
50 11 5
50 13 3
50 14 3
50 15 8
50 16 1
50 19 3
50 20 4
50 21 9
50 24 8
50 25 4
50 26 3
50 27 1
50 31 2
50 32 9
50 33 2
50 35 6
50 36 1
50 38 3
50 40 5
50 41 3
50 42 4
50 43 1
50 47 5
51 0 6
51 1 5
51 4 9
51 5 6
51 6 1
51 8 1
51 9 9
51 10 9
51 11 9
51 12 4
51 13 4
51 17 3
51 19 3
51 20 5
51 23 9
51 24 10
51 26 9
51 29 9
51 31 10
51 34 8
51 37 8
51 40 7
51 41 1
51 44 2
51 48 8
52 2 1
52 5 4
52 7 2
52 8 10
52 9 10
52 12 6
52 13 2
52 14 6
52 15 8
52 18 1
52 30 9
52 36 1
52 37 10
52 41 9
52 42 6
52 45 4
52 46 9
52 51 9
53 0 3
53 2 1
53 4 4
53 6 7
53 9 3
53 10 2
53 11 10
53 14 4
53 18 4
53 21 8
53 27 10
53 29 5
53 31 10
53 33 5
53 36 3
53 39 7
53 46 1
53 48 7
53 49 3
53 50 9
53 51 1
54 2 10
54 8 10
54 9 10
54 10 4
54 11 2
54 13 7
54 17 3
54 18 9
54 19 5
54 20 4
54 23 10
54 24 4
54 25 3
54 26 8
54 27 3
54 29 4
54 30 2
54 33 6
54 34 8
54 35 9
54 37 5
54 38 9
54 39 8
54 40 9
54 41 9
54 46 4
54 47 10
54 48 8
54 50 1
